WARNING: for repeatability, setting FPU to use double precision
============================[ Problem Statistics ]=============================
|                                                                             |
|  Number of variables:           100                                         |
|  Number of clauses:             449                                         |
|  Parse time:                   0.00 s                                       |
|  Simplification time:          0.00 s                                       |
|                                                                             |
============================[ Search Statistics ]==============================
| Conflicts |          ORIGINAL         |          LEARNT          | Progress |
|           |    Vars  Clauses Literals |    Limit  Clauses Lit/Cl |          |
===============================================================================
|       100 |     100      449     1347 |      164      100      7 |  0.010 % |
===============================================================================
restarts              : 2
conflicts             : 166            (72552 /sec)
decisions             : 212            (0.00 % random) (92657 /sec)
propagations          : 3987           (1742570 /sec)
conflict literals     : 1143           (15.77 % deleted)
Memory used           : 13.00 MB
CPU time              : 0.002288 s

SATISFIABLE
